0
1
2
3
4
5
6
7
9
10
11
12
8,37,72,78,85,128
13
79,86,131
14
15
17
19
22
23
24
25
26
27
31
32
34
33
36
38
39
41
42
43
45
46
48
49
50
51
52
53
54
55
56
58
28,60,73,77,89,94
82,110
59
45,83,97,126
61
62
63
64
65
66
67
68
70
71
75
16,20,21,29,30,88
83
57,80,123,136,137
84
87
79,86,93,131
22,54,55,114
22,55,114
89
90
91
92
95
97
99
18,98
100
101
69,74,76,84,99,135
102
117,133
103
44,47,102,132
104
25,66
105
106
107
84,99
108
109
110
23,123
111
113
114
115
116
118
119
120
122
123
124
125
127
126
129
130
134
19,35,81,96,112
40,121
138
139
140
82,110
141
142
143
144
145
146
147
148
